
Gurobi 10.0.1 (mac64[arm]) logging started Fri Mar 29 18:20:13 2024

Set parameter LogFile to value "/Users/deniserings/Documents/zib/s-bahn-data/scripts/DeniseMA/processed/BWKS_medium_september/original/BWKS_medium_september_202403291817_RINSstart.log"
Gurobi Optimizer version 10.0.1 build v10.0.1rc0 (mac64[arm])

CPU model: Apple M2
Thread count: 8 physical cores, 8 logical processors, using up to 8 threads

Optimize a model with 9843 rows, 4887 columns and 48721 nonzeros
Model fingerprint: 0xf771a6db
Variable types: 1358 continuous, 3529 integer (1331 binary)
Coefficient statistics:
  Matrix range     [1e+00, 2e+02]
  Objective range  [1e+00, 4e+02]
  Bounds range     [1e+00, 2e+02]
  RHS range        [1e+00, 5e+02]
Presolve removed 3477 rows and 895 columns
Presolve time: 0.10s
Presolved: 6366 rows, 3992 columns, 41170 nonzeros
Variable types: 870 continuous, 3122 integer (3122 binary)

Root relaxation: objective 8.158000e+03, 2083 iterations, 0.03 seconds (0.06 work units)

    Nodes    |    Current Node    |     Objective Bounds      |     Work
 Expl Unexpl |  Obj  Depth IntInf | Incumbent    BestBd   Gap | It/Node Time

     0     0 8158.00000    0  223          - 8158.00000      -     -    0s
H    0     0                    11236.000000 8158.00000  27.4%     -    0s
     0     0 8161.10034    0  329 11236.0000 8161.10034  27.4%     -    0s
H    0     0                    10910.000000 8161.10034  25.2%     -    0s
     0     0 8161.12034    0  291 10910.0000 8161.12034  25.2%     -    0s
     0     0 8161.12034    0  281 10910.0000 8161.12034  25.2%     -    0s
     0     0 8180.00000    0  389 10910.0000 8180.00000  25.0%     -    0s
     0     0 8180.00000    0  389 10910.0000 8180.00000  25.0%     -    0s
H    0     0                    10490.000000 8180.00000  22.0%     -    0s
     0     0 8180.00000    0  329 10490.0000 8180.00000  22.0%     -    0s
     0     0 8180.00000    0  331 10490.0000 8180.00000  22.0%     -    0s
H    0     0                    10443.000000 8180.00000  21.7%     -    0s
     0     0 8180.00000    0  303 10443.0000 8180.00000  21.7%     -    0s
     0     0 8180.00000    0  228 10443.0000 8180.00000  21.7%     -    1s
     0     0 8180.00000    0  256 10443.0000 8180.00000  21.7%     -    1s
H    0     0                    10423.000000 8180.00000  21.5%     -    1s
H    0     0                    10398.000000 8180.00000  21.3%     -    1s
     0     0 8180.00000    0  203 10398.0000 8180.00000  21.3%     -    1s
     0     0 8180.00000    0  264 10398.0000 8180.00000  21.3%     -    1s
H    0     0                    10366.000000 8180.00000  21.1%     -    1s
     0     0 8180.00000    0  201 10366.0000 8180.00000  21.1%     -    1s
     0     0 8180.00000    0  227 10366.0000 8180.00000  21.1%     -    1s
H    0     0                    10090.000000 8180.00000  18.9%     -    1s
H    0     0                    10048.000000 8180.00000  18.6%     -    1s
H    0     0                    9543.0000000 8180.00000  14.3%     -    2s
     0     0 8180.00000    0  171 9543.00000 8180.00000  14.3%     -    2s
     0     0 8180.00000    0  183 9543.00000 8180.00000  14.3%     -    2s
     0     0 8180.00000    0  251 9543.00000 8180.00000  14.3%     -    2s
     0     0 8180.00000    0  243 9543.00000 8180.00000  14.3%     -    2s
H    0     0                    9484.0000000 8180.00000  13.7%     -    2s

Cutting planes:
  Learned: 27
  Gomory: 3
  Cover: 28
  Implied bound: 11
  Clique: 7
  MIR: 141
  StrongCG: 1
  Flow cover: 10
  Zero half: 1
  Mod-K: 2
  RLT: 43
  Relax-and-lift: 4

Explored 1 nodes (18598 simplex iterations) in 2.52 seconds (3.17 work units)
Thread count was 8 (of 8 available processors)

Solution count 10: 9484 9543 10048 ... 10910

Solve interrupted
Best objective 9.484000000000e+03, best bound 8.180000000000e+03, gap 13.7495%

User-callback calls 1935, time in user-callback 0.00 sec

Statistics for modelBWKS_medium_september:
  Linear constraint matrix    : 9843 Constrs, 4887 Vars, 48721 NZs
  Variable types              : 1358 Continuous,
3529 Integer (1331 Binary)
  Matrix coefficient range    : [ 1, 200 ]
  Objective coefficient range : [ 1, 396 ]
  Variable bound range        : [ 1, 199 ]
  RHS coefficient range       : [ 1, 549 ]
